p wcnf 50 36 1
1 -1 5 
1 -2 6 
1 -3 7 
1 -4 8 
1 -9 1 
1 -10 1 
1 -11 1 
1 -12 1 
1 -9 13 
1 -9 14 
1 -9 15 
1 -10 14 
1 -10 15 
1 -10 16 
1 -11 15 
1 -11 16 
1 -11 17 
1 -12 16 
1 -12 17 
1 -12 18 
1 -19 1 
1 -20 1 
1 -21 1 
1 -22 1 
1 -19 23 
1 -19 24 
1 -19 25 
1 -19 26 
1 -20 24 
1 -20 25 
1 -20 26 
1 -20 27 
1 -21 25 
1 -21 26 
1 -21 27 
1 -21 28 
1 -22 26 
1 -22 27 
1 -22 28 
1 -22 29 
1 -30 9 
1 -31 9 
1 -30 32 
1 -30 33 
1 -31 33 
1 -31 34 
1 -35 19 30 
1 -35 36 
1 9 10 11 12 19 20 21 22 
1 9 10 11 12 19 20 21 22 30 31 
1 36 
